// INFEASIBLE
// That case test is an infeasible instance, because the nurse has to stay 13 hours at the hospital
nNurses=1;
minHours=4;
maxHours=10;
maxConsec=6;
maxPresence=12;
hoursDay=24;
demand=[0 0 1 1 1 0 1 1 1 0 1 0 1 1 1 0 0 0 0 0 0 0 0 0];